(set-info :source |printed by MathSAT|)
(declare-fun |!{$(in_main#0)<SIZE>}| () Int)
(declare-fun |!{$(in_main#0)<SIZE>}.next| () Int)
(declare-fun |!{$(in_main#0)<i>}| () Int)
(declare-fun |!{$(in_main#0)<i>}.next| () Int)
(declare-fun |!{$(in_main#0)<iv>}| () Int)
(declare-fun |!{$(in_main#0)<iv>}.next| () Int)
(declare-fun |!{$(in_main#0)<k>}| () Int)
(declare-fun |!{$(in_main#0)<k>}.next| () Int)
(declare-fun |!{$(in_main#0)<a.1>}| () (Array Int Int))
(declare-fun |!{$(in_main#0)<a.1>}.next| () (Array Int Int))
(declare-fun |!{$(in_main#0)<b.2>}| () (Array Int Int))
(declare-fun |!{$(in_main#0)<b.2>}.next| () (Array Int Int))
(declare-fun |!{$(in_main#0)<c.3>}| () (Array Int Int))
(declare-fun |!{$(in_main#0)<c.3>}.next| () (Array Int Int))
(declare-fun |!{$(in_main#0)<$(in___VERIFIER_nondet_int#0)<h#<__VERIFIER_nondet_int.return>>>}| () Int)
(declare-fun |!{$(in_main#0)<$(in___VERIFIER_nondet_int#2)<h#<__VERIFIER_nondet_int.return>>>}| () Int)
(declare-fun |!{$(in_main#0)<$(in___VERIFIER_nondet_int#3)<h#<__VERIFIER_nondet_int.return>>>}| () Int)
(declare-fun !pc () Int)
(declare-fun !pc.next () Int)
(declare-fun |%{$(in_main#0)<iv>}#1| () Int)
(declare-fun |%{$(in_main#0)<k>}#1| () Int)
(declare-fun |%{$(in_main#0)<a.1>}#1| () (Array Int Int))
(declare-fun |%{$(in_main#0)<b.2>}#1| () (Array Int Int))
(declare-fun |%{$(in_main#0)<c.3>}#1| () (Array Int Int))
(declare-fun |%{$(in_main#0)<a.1>}#3| () (Array Int Int))
(declare-fun |%{$(in_main#0)<b.2>}#2| () (Array Int Int))
(declare-fun |%{$(in_main#0)<c.3>}#2| () (Array Int Int))
(define-fun .def_41 () Int (! !pc :next !pc.next))
(define-fun .def_44 () Bool (! (= .def_41 2) :init true))
(define-fun .def_244 () Bool (= .def_41 42))
(define-fun .def_139 () Bool (= !pc.next 118))
(define-fun .def_247 () Bool (and .def_139 .def_244))
(define-fun .def_16 () (Array Int Int) (! |!{$(in_main#0)<a.1>}| :next |!{$(in_main#0)<a.1>}.next|))
(define-fun .def_218 () (Array Int Int) (store .def_16 |!{$(in_main#0)<$(in___VERIFIER_nondet_int#3)<h#<__VERIFIER_nondet_int.return>>>}| 1))
(define-fun .def_238 () Bool (= |!{$(in_main#0)<a.1>}.next| .def_218))
(define-fun .def_236 () Bool (= |!{$(in_main#0)<k>}.next| 0))
(define-fun .def_234 () Bool (= |!{$(in_main#0)<iv>}.next| |!{$(in_main#0)<$(in___VERIFIER_nondet_int#3)<h#<__VERIFIER_nondet_int.return>>>}|))
(define-fun .def_10 () Int (! |!{$(in_main#0)<i>}| :next |!{$(in_main#0)<i>}.next|))
(define-fun .def_100 () Bool (= .def_10 |!{$(in_main#0)<i>}.next|))
(define-fun .def_8 () Int (! |!{$(in_main#0)<SIZE>}| :next |!{$(in_main#0)<SIZE>}.next|))
(define-fun .def_98 () Bool (= .def_8 |!{$(in_main#0)<SIZE>}.next|))
(define-fun .def_114 () Bool (and .def_98 .def_100))
(define-fun .def_235 () Bool (and .def_114 .def_234))
(define-fun .def_237 () Bool (and .def_235 .def_236))
(define-fun .def_239 () Bool (and .def_237 .def_238))
(define-fun .def_18 () (Array Int Int) (! |!{$(in_main#0)<b.2>}| :next |!{$(in_main#0)<b.2>}.next|))
(define-fun .def_108 () Bool (= .def_18 |!{$(in_main#0)<b.2>}.next|))
(define-fun .def_240 () Bool (and .def_108 .def_239))
(define-fun .def_20 () (Array Int Int) (! |!{$(in_main#0)<c.3>}| :next |!{$(in_main#0)<c.3>}.next|))
(define-fun .def_110 () Bool (= .def_20 |!{$(in_main#0)<c.3>}.next|))
(define-fun .def_241 () Bool (and .def_110 .def_240))
(define-fun .def_211 () Bool (<= .def_8 |!{$(in_main#0)<$(in___VERIFIER_nondet_int#3)<h#<__VERIFIER_nondet_int.return>>>}|))
(define-fun .def_212 () Bool (not .def_211))
(define-fun .def_210 () Bool (<= 0 |!{$(in_main#0)<$(in___VERIFIER_nondet_int#3)<h#<__VERIFIER_nondet_int.return>>>}|))
(define-fun .def_213 () Bool (and .def_210 .def_212))
(define-fun .def_214 () Int (ite .def_213 1 0))
(define-fun .def_215 () Bool (= .def_214 0))
(define-fun .def_216 () Bool (not .def_215))
(define-fun .def_242 () Bool (and .def_216 .def_241))
(define-fun .def_150 () Bool (<= .def_8 .def_10))
(define-fun .def_243 () Bool (and .def_150 .def_242))
(define-fun .def_248 () Bool (and .def_243 .def_247))
(define-fun .def_78 () Bool (= !pc.next 42))
(define-fun .def_245 () Bool (and .def_78 .def_244))
(define-fun .def_229 () Bool (= |!{$(in_main#0)<c.3>}.next| |%{$(in_main#0)<c.3>}#2|))
(define-fun .def_227 () Bool (= |!{$(in_main#0)<b.2>}.next| |%{$(in_main#0)<b.2>}#2|))
(define-fun .def_225 () Bool (= |!{$(in_main#0)<a.1>}.next| |%{$(in_main#0)<a.1>}#3|))
(define-fun .def_219 () Int (* (- 1) |!{$(in_main#0)<i>}.next|))
(define-fun .def_220 () Int (+ .def_10 .def_219))
(define-fun .def_221 () Bool (= .def_220 (- 1)))
(define-fun .def_222 () Bool (and .def_98 .def_221))
(define-fun .def_12 () Int (! |!{$(in_main#0)<iv>}| :next |!{$(in_main#0)<iv>}.next|))
(define-fun .def_102 () Bool (= .def_12 |!{$(in_main#0)<iv>}.next|))
(define-fun .def_223 () Bool (and .def_102 .def_222))
(define-fun .def_14 () Int (! |!{$(in_main#0)<k>}| :next |!{$(in_main#0)<k>}.next|))
(define-fun .def_104 () Bool (= .def_14 |!{$(in_main#0)<k>}.next|))
(define-fun .def_224 () Bool (and .def_104 .def_223))
(define-fun .def_226 () Bool (and .def_224 .def_225))
(define-fun .def_228 () Bool (and .def_226 .def_227))
(define-fun .def_230 () Bool (and .def_228 .def_229))
(define-fun .def_204 () Bool (= .def_20 |%{$(in_main#0)<c.3>}#2|))
(define-fun .def_178 () Int (select |%{$(in_main#0)<a.1>}#3| .def_10))
(define-fun .def_179 () Bool (= .def_178 0))
(define-fun .def_205 () Bool (and .def_179 .def_204))
(define-fun .def_185 () (Array Int Int) (store .def_20 .def_10 1))
(define-fun .def_195 () Bool (= .def_185 |%{$(in_main#0)<c.3>}#2|))
(define-fun .def_181 () Int (select |%{$(in_main#0)<b.2>}#2| .def_10))
(define-fun .def_182 () Bool (= .def_181 0))
(define-fun .def_184 () Bool (not .def_182))
(define-fun .def_197 () Bool (and .def_184 .def_195))
(define-fun .def_183 () (Array Int Int) (store .def_20 .def_10 0))
(define-fun .def_194 () Bool (= .def_183 |%{$(in_main#0)<c.3>}#2|))
(define-fun .def_196 () Bool (and .def_182 .def_194))
(define-fun .def_198 () Bool (or .def_196 .def_197))
(define-fun .def_180 () Bool (not .def_179))
(define-fun .def_199 () Bool (and .def_180 .def_198))
(define-fun .def_206 () Bool (or .def_199 .def_205))
(define-fun .def_231 () Bool (and .def_206 .def_230))
(define-fun .def_161 () (Array Int Int) (store .def_18 .def_10 0))
(define-fun .def_173 () Bool (= .def_161 |%{$(in_main#0)<b.2>}#2|))
(define-fun .def_155 () (Array Int Int) (store .def_16 .def_10 1))
(define-fun .def_167 () Bool (= .def_155 |%{$(in_main#0)<a.1>}#3|))
(define-fun .def_153 () Bool (= |!{$(in_main#0)<$(in___VERIFIER_nondet_int#2)<h#<__VERIFIER_nondet_int.return>>>}| 0))
(define-fun .def_154 () Bool (not .def_153))
(define-fun .def_169 () Bool (and .def_154 .def_167))
(define-fun .def_175 () Bool (and .def_169 .def_173))
(define-fun .def_172 () Bool (= .def_18 |%{$(in_main#0)<b.2>}#2|))
(define-fun .def_152 () (Array Int Int) (store .def_16 .def_10 0))
(define-fun .def_166 () Bool (= .def_152 |%{$(in_main#0)<a.1>}#3|))
(define-fun .def_168 () Bool (and .def_153 .def_166))
(define-fun .def_174 () Bool (and .def_168 .def_172))
(define-fun .def_176 () Bool (or .def_174 .def_175))
(define-fun .def_232 () Bool (and .def_176 .def_231))
(define-fun .def_151 () Bool (not .def_150))
(define-fun .def_233 () Bool (and .def_151 .def_232))
(define-fun .def_246 () Bool (and .def_233 .def_245))
(define-fun .def_249 () Bool (or .def_246 .def_248))
(define-fun .def_143 () Bool (= !pc.next 0))
(define-fun .def_134 () Bool (= .def_41 118))
(define-fun .def_144 () Bool (and .def_134 .def_143))
(define-fun .def_81 () Bool (<= .def_8 .def_14))
(define-fun .def_126 () Bool (and .def_81 .def_98))
(define-fun .def_127 () Bool (and .def_100 .def_126))
(define-fun .def_128 () Bool (and .def_102 .def_127))
(define-fun .def_129 () Bool (and .def_104 .def_128))
(define-fun .def_106 () Bool (= .def_16 |!{$(in_main#0)<a.1>}.next|))
(define-fun .def_130 () Bool (and .def_106 .def_129))
(define-fun .def_131 () Bool (and .def_108 .def_130))
(define-fun .def_132 () Bool (and .def_110 .def_131))
(define-fun .def_145 () Bool (and .def_132 .def_144))
(define-fun .def_140 () Bool (and .def_134 .def_139))
(define-fun .def_117 () Int (* (- 1) |!{$(in_main#0)<k>}.next|))
(define-fun .def_118 () Int (+ .def_14 .def_117))
(define-fun .def_119 () Bool (= .def_118 (- 1)))
(define-fun .def_115 () Bool (and .def_102 .def_114))
(define-fun .def_120 () Bool (and .def_115 .def_119))
(define-fun .def_121 () Bool (and .def_106 .def_120))
(define-fun .def_122 () Bool (and .def_108 .def_121))
(define-fun .def_123 () Bool (and .def_110 .def_122))
(define-fun .def_84 () Int (select .def_20 .def_14))
(define-fun .def_85 () Bool (= .def_84 0))
(define-fun .def_86 () Int (ite .def_85 1 0))
(define-fun .def_87 () Bool (= .def_86 0))
(define-fun .def_88 () Bool (not .def_87))
(define-fun .def_83 () Bool (= .def_12 .def_14))
(define-fun .def_92 () Bool (and .def_83 .def_88))
(define-fun .def_91 () Bool (not .def_83))
(define-fun .def_95 () Bool (or .def_91 .def_92))
(define-fun .def_124 () Bool (and .def_95 .def_123))
(define-fun .def_82 () Bool (not .def_81))
(define-fun .def_125 () Bool (and .def_82 .def_124))
(define-fun .def_141 () Bool (and .def_125 .def_140))
(define-fun .def_136 () Bool (= !pc.next 146))
(define-fun .def_137 () Bool (and .def_134 .def_136))
(define-fun .def_99 () Bool (and .def_87 .def_98))
(define-fun .def_101 () Bool (and .def_99 .def_100))
(define-fun .def_103 () Bool (and .def_101 .def_102))
(define-fun .def_105 () Bool (and .def_103 .def_104))
(define-fun .def_107 () Bool (and .def_105 .def_106))
(define-fun .def_109 () Bool (and .def_107 .def_108))
(define-fun .def_111 () Bool (and .def_109 .def_110))
(define-fun .def_112 () Bool (and .def_83 .def_111))
(define-fun .def_113 () Bool (and .def_82 .def_112))
(define-fun .def_138 () Bool (and .def_113 .def_137))
(define-fun .def_142 () Bool (or .def_138 .def_141))
(define-fun .def_146 () Bool (or .def_142 .def_145))
(define-fun .def_79 () Bool (and .def_44 .def_78))
(define-fun .def_74 () Bool (= |!{$(in_main#0)<c.3>}.next| |%{$(in_main#0)<c.3>}#1|))
(define-fun .def_72 () Bool (= |!{$(in_main#0)<b.2>}.next| |%{$(in_main#0)<b.2>}#1|))
(define-fun .def_70 () Bool (= |!{$(in_main#0)<a.1>}.next| |%{$(in_main#0)<a.1>}#1|))
(define-fun .def_68 () Bool (= |!{$(in_main#0)<k>}.next| |%{$(in_main#0)<k>}#1|))
(define-fun .def_66 () Bool (= |!{$(in_main#0)<iv>}.next| |%{$(in_main#0)<iv>}#1|))
(define-fun .def_64 () Bool (= |!{$(in_main#0)<i>}.next| 0))
(define-fun .def_63 () Bool (= |!{$(in_main#0)<SIZE>}.next| |!{$(in_main#0)<$(in___VERIFIER_nondet_int#0)<h#<__VERIFIER_nondet_int.return>>>}|))
(define-fun .def_65 () Bool (and .def_63 .def_64))
(define-fun .def_67 () Bool (and .def_65 .def_66))
(define-fun .def_69 () Bool (and .def_67 .def_68))
(define-fun .def_71 () Bool (and .def_69 .def_70))
(define-fun .def_73 () Bool (and .def_71 .def_72))
(define-fun .def_75 () Bool (and .def_73 .def_74))
(define-fun .def_58 () Bool (<= |!{$(in_main#0)<$(in___VERIFIER_nondet_int#0)<h#<__VERIFIER_nondet_int.return>>>}| 0))
(define-fun .def_59 () Bool (not .def_58))
(define-fun .def_60 () Int (ite .def_59 1 0))
(define-fun .def_61 () Bool (= .def_60 0))
(define-fun .def_62 () Bool (not .def_61))
(define-fun .def_76 () Bool (and .def_62 .def_75))
(define-fun .def_80 () Bool (and .def_76 .def_79))
(define-fun .def_147 () Bool (or .def_80 .def_146))
(define-fun .def_250 () Bool (! (or .def_147 .def_249) :trans true))
(define-fun .def_148 () Bool (= .def_41 146))
(define-fun .def_251 () Bool (! (not .def_148) :invar-property 0 :invar-property-name ||))
(assert true)
